Tried aggregator 2 times.
MIP Presolve eliminated 5 rows and 3 columns.
MIP Presolve modified 14 coefficients.
Aggregator did 14 substitutions.
Reduced MIP has 69 rows, 66 columns, and 167 nonzeros.
Reduced MIP has 37 binaries, 7 generals, 0 SOSs, and 0 indicators.
Presolve time = 0.00 sec. (0.14 ticks)
Found incumbent of value 4.000000 after 0.00 sec. (0.25 ticks)
Probing fixed 3 vars, tightened 8 bounds.
Probing time = 0.00 sec. (0.08 ticks)
Tried aggregator 3 times.
MIP Presolve eliminated 5 rows and 5 columns.
MIP Presolve modified 16 coefficients.
Aggregator did 26 substitutions.
Reduced MIP has 38 rows, 35 columns, and 116 nonzeros.
Reduced MIP has 27 binaries, 8 generals, 0 SOSs, and 0 indicators.
Presolve time = 0.00 sec. (0.19 ticks)
Probing time = 0.00 sec. (0.02 ticks)
Tried aggregator 1 time.
Reduced MIP has 38 rows, 35 columns, and 116 nonzeros.
Reduced MIP has 27 binaries, 8 generals, 0 SOSs, and 0 indicators.
Presolve time = 0.00 sec. (0.06 ticks)
Probing time = 0.00 sec. (0.02 ticks)
Clique table members: 20.
MIP emphasis: balance optimality and feasibility.
MIP search method: dynamic search.
Parallel mode: deterministic, using up to 4 threads.
Root relaxation solution time = 0.00 sec. (0.05 ticks)

        Nodes                                         Cuts/
   Node  Left     Objective  IInf  Best Integer    Best Bound    ItCnt     Gap

*     0+    0                            4.0000        1.0000       15   75.00%
      0     0        1.0000    12        4.0000        1.0000       15   75.00%
*     0+    0                            2.0000        1.0000       15   50.00%
*     0     0      integral     0        1.0000       Cuts: 2       18    0.00%
      0     0        cutoff              1.0000        1.0000       18    0.00%
Elapsed time = 0.01 sec. (1.26 ticks, tree = 0.00 MB, solutions = 3)

Clique cuts applied:  1
Zero-half cuts applied:  1

Root node processing (before b&c):
  Real time             =    0.01 sec. (1.27 ticks)
Parallel b&c, 4 threads:
  Real time             =    0.00 sec. (0.00 ticks)
  Sync time (average)   =    0.00 sec.
  Wait time (average)   =    0.00 sec.
                          ------------
Total (root+branch&cut) =    0.01 sec. (1.27 ticks)
